p wcnf 142 169 170 
1 107 -78 0 
1 -109 -5 0 
1 133 123 0 
1 16 94 0 
1 127 -141 0 
1 -122 -4 0 
1 139 -78 0 
1 102 -5 0 
1 126 12 0 
1 -68 139 0 
1 -5 94 0 
1 110 137 0 
1 113 100 0 
1 29 132 0 
1 -36 -104 0 
1 -31 67 0 
1 119 11 0 
1 -109 -60 0 
1 -7 -102 0 
1 -90 -22 0 
1 116 -37 0 
1 39 -109 0 
1 -101 23 0 
1 70 62 0 
1 -92 57 0 
1 -109 73 0 
1 -84 -52 0 
1 -139 7 0 
1 137 -118 0 
1 -30 -28 0 
1 -3 19 0 
1 -38 -94 0 
1 -90 63 0 
1 -106 -60 0 
1 -36 113 0 
1 -112 -4 0 
1 -43 65 0 
1 -108 -114 0 
1 -20 -76 0 
1 -78 137 0 
1 122 84 0 
1 -45 -11 0 
1 -127 79 0 
1 -72 -139 0 
1 -132 18 0 
1 105 -142 0 
1 -28 45 0 
1 -54 -108 0 
1 -125 -51 0 
1 56 141 0 
1 67 58 0 
1 -19 142 0 
1 -89 -107 0 
1 -74 15 0 
1 -80 87 0 
1 17 -26 0 
1 -97 -105 0 
1 114 87 0 
1 56 62 0 
1 122 -100 0 
1 69 -46 0 
1 -115 -82 0 
1 51 -42 0 
1 -123 55 0 
1 -1 72 0 
1 112 -16 0 
1 60 9 0 
1 -62 -122 0 
1 -96 -79 0 
1 -127 -39 0 
1 134 -74 0 
1 -64 101 0 
1 -21 52 0 
1 5 -75 0 
1 34 -125 0 
1 95 138 0 
1 36 20 0 
1 99 138 0 
1 46 -127 0 
1 -81 87 0 
1 8 37 0 
1 129 44 0 
1 21 86 0 
1 -57 22 0 
1 -102 55 0 
1 111 36 0 
1 -65 -122 0 
1 -42 96 0 
1 -26 11 0 
1 -51 -42 0 
1 -32 -134 0 
1 -121 82 0 
1 -139 40 0 
1 73 99 0 
1 -138 56 0 
1 -11 -74 0 
1 -10 87 0 
1 118 115 0 
1 -2 47 0 
1 -50 134 0 
1 28 114 0 
1 98 116 0 
1 -73 -129 0 
1 -107 -132 0 
1 -63 99 0 
1 88 -72 0 
1 21 -138 0 
1 86 -104 0 
1 103 113 0 
1 -78 44 0 
1 8 75 0 
1 -64 -38 0 
1 -67 -104 0 
1 -128 -6 0 
1 111 -114 0 
1 -6 -89 0 
1 43 -55 0 
1 -23 -59 0 
1 -85 19 0 
1 -67 105 0 
1 32 72 0 
1 11 -90 0 
1 -132 -13 0 
1 -33 121 0 
1 -135 -20 0 
1 99 135 0 
1 -129 81 0 
1 67 115 0 
1 109 -73 0 
1 34 -20 0 
1 -84 120 0 
1 -33 -138 0 
1 -16 -59 0 
1 114 56 0 
1 125 32 0 
1 -53 -99 0 
1 -48 118 0 
1 131 133 0 
1 -95 -47 0 
1 99 134 0 
1 -91 120 0 
1 -84 -25 0 
1 29 49 0 
1 16 -52 0 
1 -14 -98 0 
1 -87 -82 0 
1 37 36 0 
1 59 43 0 
1 34 -69 0 
1 51 85 0 
1 18 -17 0 
1 10 -106 0 
1 -36 113 0 
1 42 25 0 
1 -71 85 0 
1 -9 -63 0 
1 -111 40 0 
1 -62 -87 0 
1 -28 -68 0 
1 -9 16 0 
1 -59 -20 0 
1 1 -92 0 
1 18 -55 0 
1 34 47 0 
1 -3 -100 0 
1 46 -122 0 
1 120 86 0 
1 -90 -18 0 
1 23 129 0 
